benchmarks/INST_36x36/15/inst36x36_15_99.txt
6
1
-1	-1	23	-1	-1	-1	-1	21	-1	-1	-1	-1	-1	-1	-1	-1	-1	-1	-1	-1	-1	-1	-1	-1	-1	-1	-1	16	-1	-1	-1	-1	11	-1	26	-1
-1	-1	-1	-1	-1	-1	-1	-1	-1	-1	-1	-1	-1	-1	-1	-1	-1	-1	-1	-1	-1	-1	-1	-1	-1	-1	22	13	-1	-1	-1	-1	-1	-1	-1	-1
27	-1	-1	-1	33	-1	-1	-1	-1	-1	-1	-1	1	-1	-1	-1	-1	-1	24	-1	-1	-1	-1	4	-1	-1	-1	-1	-1	-1	-1	-1	-1	-1	10	14
15	-1	9	-1	-1	-1	-1	-1	16	-1	19	-1	-1	-1	-1	-1	5	-1	-1	-1	-1	-1	-1	-1	-1	-1	-1	34	-1	17	-1	-1	-1	-1	3	-1
-1	19	-1	25	18	-1	24	-1	-1	-1	-1	-1	-1	-1	-1	-1	-1	-1	-1	-1	-1	-1	-1	-1	-1	-1	-1	-1	-1	6	32	-1	-1	-1	-1	1
-1	-1	-1	-1	26	-1	23	-1	-1	-1	-1	-1	-1	-1	-1	-1	-1	-1	6	-1	-1	-1	-1	-1	-1	-1	-1	-1	-1	1	-1	-1	-1	-1	-1	-1
-1	-1	-1	-1	-1	8	-1	-1	-1	-1	28	-1	-1	-1	-1	11	-1	-1	-1	9	-1	-1	-1	-1	-1	-1	-1	-1	6	-1	-1	-1	-1	23	-1	32
31	-1	10	-1	-1	-1	6	-1	-1	-1	-1	-1	15	24	-1	-1	-1	-1	-1	-1	-1	19	-1	-1	-1	-1	-1	-1	-1	-1	-1	20	-1	-1	-1	-1
-1	-1	-1	-1	-1	-1	1	-1	-1	-1	-1	-1	-1	-1	-1	-1	-1	-1	-1	-1	-1	20	-1	-1	-1	-1	-1	18	-1	-1	-1	-1	-1	17	-1	-1
-1	-1	-1	-1	-1	-1	-1	-1	-1	-1	-1	8	20	-1	-1	-1	-1	-1	34	-1	-1	-1	-1	17	-1	-1	-1	-1	-1	-1	-1	-1	-1	-1	21	-1
36	32	-1	-1	-1	-1	35	-1	-1	-1	-1	-1	-1	8	-1	-1	30	-1	-1	-1	-1	-1	-1	-1	-1	13	-1	1	-1	-1	-1	-1	-1	-1	28	6
-1	21	-1	22	-1	-1	-1	-1	-1	-1	-1	-1	-1	-1	29	-1	-1	4	-1	-1	-1	1	-1	-1	-1	-1	-1	-1	-1	14	-1	-1	-1	-1	-1	-1
-1	1	-1	-1	-1	-1	-1	-1	-1	-1	-1	20	-1	-1	34	-1	-1	-1	-1	-1	-1	-1	-1	13	5	-1	9	-1	-1	-1	-1	-1	22	-1	-1	-1
-1	-1	-1	-1	-1	16	34	4	-1	-1	-1	-1	-1	-1	-1	-1	-1	-1	-1	-1	-1	-1	-1	-1	-1	-1	-1	-1	-1	8	-1	-1	-1	-1	-1	-1
-1	24	-1	14	-1	-1	-1	-1	-1	-1	-1	-1	-1	-1	-1	-1	-1	-1	-1	-1	-1	-1	-1	-1	-1	-1	-1	-1	-1	-1	-1	9	-1	-1	-1	35
-1	6	-1	-1	-1	-1	12	-1	-1	-1	-1	-1	-1	2	-1	-1	9	30	-1	-1	-1	-1	-1	-1	-1	-1	24	-1	-1	-1	-1	-1	-1	-1	-1	-1
-1	-1	-1	-1	-1	-1	-1	-1	-1	16	-1	-1	31	-1	-1	35	-1	-1	-1	-1	-1	-1	-1	-1	-1	-1	-1	15	-1	-1	-1	-1	-1	-1	-1	-1
25	-1	-1	-1	-1	-1	-1	-1	-1	-1	-1	-1	-1	-1	-1	-1	-1	-1	-1	-1	-1	-1	-1	-1	-1	11	-1	-1	-1	-1	23	-1	18	-1	-1	-1
-1	-1	-1	-1	-1	-1	-1	-1	-1	-1	-1	-1	-1	36	18	-1	-1	-1	21	10	-1	-1	-1	-1	35	-1	-1	-1	-1	-1	-1	-1	-1	-1	-1	-1
-1	-1	-1	4	-1	-1	-1	5	-1	25	-1	-1	-1	-1	-1	-1	-1	-1	-1	-1	-1	-1	-1	-1	28	-1	-1	31	27	-1	-1	-1	-1	-1	-1	-1
-1	-1	-1	-1	-1	-1	33	-1	-1	-1	-1	-1	-1	-1	-1	-1	-1	-1	-1	-1	-1	-1	-1	-1	17	-1	12	-1	-1	-1	-1	-1	-1	-1	-1	-1
-1	33	-1	36	6	-1	-1	-1	-1	-1	-1	-1	-1	-1	1	-1	-1	35	-1	-1	-1	30	-1	-1	-1	-1	-1	-1	-1	-1	-1	-1	-1	34	-1	-1
-1	-1	-1	-1	-1	-1	-1	-1	-1	-1	-1	-1	12	30	-1	-1	-1	-1	-1	-1	-1	-1	-1	-1	11	-1	-1	-1	-1	-1	5	-1	-1	-1	-1	-1
8	-1	-1	-1	-1	-1	-1	34	-1	-1	-1	-1	-1	-1	13	-1	-1	-1	18	-1	-1	-1	-1	-1	-1	-1	-1	33	4	5	10	-1	-1	-1	-1	-1
-1	17	-1	-1	-1	-1	7	-1	-1	-1	-1	-1	-1	-1	-1	-1	-1	-1	29	-1	-1	-1	-1	-1	32	-1	-1	-1	-1	-1	-1	5	-1	-1	-1	-1
-1	-1	7	-1	-1	-1	-1	-1	-1	-1	-1	-1	-1	-1	-1	-1	-1	-1	-1	-1	-1	-1	-1	-1	-1	-1	-1	-1	-1	15	-1	-1	-1	-1	-1	-1
-1	-1	-1	-1	-1	19	2	-1	34	-1	-1	-1	-1	17	-1	-1	-1	8	-1	-1	-1	-1	-1	-1	-1	-1	-1	-1	-1	-1	-1	23	-1	-1	-1	-1
28	-1	-1	-1	21	-1	-1	-1	-1	29	-1	-1	-1	-1	-1	9	22	-1	-1	-1	-1	11	-1	-1	-1	-1	-1	-1	-1	-1	-1	-1	-1	16	-1	-1
-1	-1	-1	-1	-1	31	-1	-1	-1	-1	32	-1	-1	-1	-1	-1	-1	16	-1	-1	-1	-1	-1	-1	23	30	-1	-1	-1	-1	-1	-1	-1	-1	13	-1
-1	-1	-1	-1	-1	-1	-1	-1	-1	-1	-1	-1	-1	-1	-1	-1	18	-1	26	-1	-1	-1	-1	-1	-1	-1	-1	-1	11	3	-1	-1	-1	-1	-1	-1
-1	-1	-1	-1	-1	5	32	-1	-1	-1	-1	-1	-1	-1	-1	-1	-1	-1	-1	-1	-1	-1	-1	-1	27	16	-1	-1	-1	-1	-1	-1	-1	-1	-1	-1
-1	-1	-1	-1	-1	-1	-1	-1	-1	18	-1	-1	-1	-1	-1	-1	-1	-1	-1	-1	-1	-1	-1	-1	-1	-1	-1	-1	-1	-1	-1	-1	-1	-1	-1	23
-1	-1	-1	-1	-1	-1	-1	31	-1	-1	-1	-1	-1	-1	-1	-1	-1	-1	30	-1	14	-1	5	19	-1	-1	6	17	-1	-1	-1	-1	-1	-1	-1	-1
-1	-1	-1	-1	-1	-1	-1	-1	-1	-1	-1	-1	-1	-1	-1	-1	-1	-1	25	-1	-1	31	-1	-1	-1	-1	5	12	-1	-1	-1	-1	-1	-1	-1	-1
-1	-1	-1	28	-1	-1	-1	2	-1	-1	-1	21	30	-1	-1	-1	-1	19	-1	-1	-1	-1	-1	-1	-1	-1	-1	-1	-1	-1	27	-1	-1	-1	-1	-1
-1	35	-1	-1	-1	29	-1	-1	-1	-1	-1	16	-1	31	-1	-1	-1	-1	-1	15	-1	-1	-1	-1	9	-1	-1	-1	-1	-1	18	12	-1	-1	-1	-1
